40 780
1 2 68
1 3 64
1 4 49
1 5 21
1 6 58
1 7 16
1 8 51
1 9 17
1 10 59
1 11 91
1 12 66
1 13 110
1 14 30
1 15 87
1 16 64
1 17 35
1 18 50
1 19 75
1 20 89
1 21 65
1 22 111
1 23 34
1 24 75
1 25 66
1 26 99
1 27 117
1 28 4
1 29 36
1 30 112
1 31 117
1 32 76
1 33 88
1 34 47
1 35 32
1 36 74
1 37 60
1 38 112
1 39 73
1 40 34
2 3 48
2 4 52
2 5 68
2 6 28
2 7 73
2 8 7
2 9 61
2 10 84
2 11 47
2 12 104
2 13 53
2 14 32
2 15 3
2 16 34
2 17 41
2 18 107
2 19 25
2 20 29
2 21 112
2 22 118
2 23 26
2 24 53
2 25 85
2 26 21
2 27 104
2 28 74
2 29 27
2 30 58
2 31 7
2 32 95
2 33 61
2 34 99
2 35 118
2 36 51
2 37 34
2 38 46
2 39 106
2 40 52
3 4 18
3 5 23
3 6 3
3 7 70
3 8 24
3 9 51
3 10 6
3 11 44
3 12 87
3 13 36
3 14 85
3 15 14
3 16 83
3 17 85
3 18 115
3 19 40
3 20 83
3 21 85
3 22 27
3 23 42
3 24 49
3 25 70
3 26 16
3 27 16
3 28 108
3 29 78
3 30 63
3 31 103
3 32 28
3 33 59
3 34 31
3 35 81
3 36 115
3 37 33
3 38 5
3 39 13
3 40 8
4 5 64
4 6 51
4 7 54
4 8 73
4 9 4
4 10 46
4 11 70
4 12 108
4 13 43
4 14 87
4 15 25
4 16 84
4 17 85
4 18 24
4 19 100
4 20 28
4 21 23
4 22 36
4 23 91
4 24 18
4 25 25
4 26 86
4 27 23
4 28 40
4 29 88
4 30 97
4 31 72
4 32 73
4 33 59
4 34 108
4 35 47
4 36 69
4 37 28
4 38 85
4 39 106
4 40 24
5 6 86
5 7 24
5 8 51
5 9 68
5 10 42
5 11 34
5 12 92
5 13 99
5 14 81
5 15 52
5 16 50
5 17 26
5 18 60
5 19 95
5 20 114
5 21 33
5 22 91
5 23 30
5 24 20
5 25 53
5 26 5
5 27 16
5 28 99
5 29 20
5 30 26
5 31 44
5 32 111
5 33 23
5 34 33
5 35 43
5 36 34
5 37 23
5 38 79
5 39 73
5 40 3
6 7 97
6 8 46
6 9 113
6 10 51
6 11 22
6 12 117
6 13 106
6 14 73
6 15 12
6 16 77
6 17 40
6 18 60
6 19 94
6 20 112
6 21 28
6 22 85
6 23 45
6 24 112
6 25 56
6 26 6
6 27 95
6 28 30
6 29 71
6 30 109
6 31 26
6 32 23
6 33 1
6 34 9
6 35 43
6 36 25
6 37 116
6 38 41
6 39 97
6 40 6
7 8 43
7 9 19
7 10 80
7 11 107
7 12 33
7 13 25
7 14 23
7 15 40
7 16 28
7 17 99
7 18 98
7 19 31
7 20 31
7 21 96
7 22 115
7 23 27
7 24 50
7 25 16
7 26 60
7 27 50
7 28 6
7 29 39
7 30 68
7 31 9
7 32 36
7 33 61
7 34 70
7 35 80
7 36 36
7 37 22
7 38 96
7 39 84
7 40 107
8 9 28
8 10 22
8 11 19
8 12 75
8 13 6
8 14 87
8 15 56
8 16 97
8 17 14
8 18 100
8 19 5
8 20 1
8 21 95
8 22 58
8 23 88
8 24 32
8 25 50
8 26 66
8 27 39
8 28 54
8 29 111
8 30 92
8 31 117
8 32 58
8 33 108
8 34 112
8 35 14
8 36 27
8 37 13
8 38 57
8 39 116
8 40 0
9 10 8
9 11 90
9 12 88
9 13 81
9 14 40
9 15 49
9 16 86
9 17 16
9 18 110
9 19 66
9 20 97
9 21 53
9 22 25
9 23 111
9 24 89
9 25 57
9 26 112
9 27 77
9 28 62
9 29 53
9 30 9
9 31 101
9 32 24
9 33 115
9 34 2
9 35 109
9 36 48
9 37 61
9 38 77
9 39 37
9 40 5
10 11 0
10 12 81
10 13 99
10 14 101
10 15 76
10 16 75
10 17 90
10 18 21
10 19 66
10 20 95
10 21 32
10 22 43
10 23 10
10 24 47
10 25 7
10 26 27
10 27 73
10 28 8
10 29 81
10 30 40
10 31 5
10 32 113
10 33 36
10 34 81
10 35 97
10 36 27
10 37 11
10 38 40
10 39 26
10 40 48
11 12 65
11 13 33
11 14 28
11 15 90
11 16 99
11 17 56
11 18 116
11 19 3
11 20 40
11 21 13
11 22 23
11 23 42
11 24 98
11 25 114
11 26 47
11 27 23
11 28 1
11 29 91
11 30 53
11 31 48
11 32 84
11 33 114
11 34 111
11 35 6
11 36 74
11 37 35
11 38 53
11 39 39
11 40 8
12 13 9
12 14 74
12 15 72
12 16 41
12 17 34
12 18 61
12 19 74
12 20 24
12 21 40
12 22 68
12 23 105
12 24 71
12 25 100
12 26 10
12 27 93
12 28 45
12 29 18
12 30 10
12 31 104
12 32 24
12 33 71
12 34 78
12 35 40
12 36 74
12 37 73
12 38 48
12 39 119
12 40 78
13 14 110
13 15 13
13 16 71
13 17 5
13 18 70
13 19 77
13 20 9
13 21 53
13 22 26
13 23 23
13 24 108
13 25 6
13 26 65
13 27 16
13 28 22
13 29 33
13 30 48
13 31 102
13 32 110
13 33 101
13 34 32
13 35 36
13 36 81
13 37 104
13 38 34
13 39 69
13 40 25
14 15 38
14 16 95
14 17 65
14 18 77
14 19 46
14 20 54
14 21 22
14 22 0
14 23 30
14 24 94
14 25 93
14 26 6
14 27 87
14 28 70
14 29 72
14 30 105
14 31 41
14 32 81
14 33 111
14 34 50
14 35 83
14 36 3
14 37 51
14 38 100
14 39 89
14 40 52
15 16 89
15 17 98
15 18 29
15 19 44
15 20 97
15 21 79
15 22 9
15 23 45
15 24 49
15 25 114
15 26 36
15 27 43
15 28 29
15 29 74
15 30 104
15 31 119
15 32 115
15 33 108
15 34 87
15 35 51
15 36 18
15 37 94
15 38 30
15 39 97
15 40 106
16 17 76
16 18 83
16 19 3
16 20 49
16 21 106
16 22 72
16 23 3
16 24 113
16 25 12
16 26 115
16 27 104
16 28 93
16 29 32
16 30 59
16 31 30
16 32 98
16 33 64
16 34 81
16 35 33
16 36 116
16 37 107
16 38 45
16 39 35
16 40 81
17 18 115
17 19 35
17 20 99
17 21 23
17 22 114
17 23 102
17 24 118
17 25 41
17 26 89
17 27 74
17 28 25
17 29 4
17 30 8
17 31 41
17 32 91
17 33 77
17 34 3
17 35 111
17 36 81
17 37 102
17 38 21
17 39 26
17 40 31
18 19 59
18 20 75
18 21 61
18 22 72
18 23 31
18 24 107
18 25 47
18 26 66
18 27 36
18 28 33
18 29 98
18 30 50
18 31 73
18 32 1
18 33 28
18 34 112
18 35 29
18 36 23
18 37 83
18 38 4
18 39 27
18 40 112
19 20 101
19 21 21
19 22 67
19 23 42
19 24 77
19 25 84
19 26 38
19 27 60
19 28 94
19 29 59
19 30 46
19 31 16
19 32 98
19 33 20
19 34 95
19 35 66
19 36 20
19 37 60
19 38 7
19 39 55
19 40 89
20 21 98
20 22 24
20 23 29
20 24 35
20 25 45
20 26 87
20 27 103
20 28 33
20 29 62
20 30 8
20 31 32
20 32 70
20 33 19
20 34 30
20 35 2
20 36 110
20 37 0
20 38 15
20 39 41
20 40 95
21 22 91
21 23 39
21 24 101
21 25 64
21 26 45
21 27 71
21 28 77
21 29 60
21 30 59
21 31 117
21 32 63
21 33 1
21 34 48
21 35 32
21 36 91
21 37 74
21 38 104
21 39 38
21 40 5
22 23 78
22 24 22
22 25 10
22 26 54
22 27 98
22 28 6
22 29 58
22 30 108
22 31 42
22 32 55
22 33 44
22 34 117
22 35 101
22 36 80
22 37 107
22 38 11
22 39 66
22 40 1
23 24 4
23 25 64
23 26 107
23 27 119
23 28 12
23 29 103
23 30 110
23 31 109
23 32 96
23 33 1
23 34 38
23 35 85
23 36 62
23 37 25
23 38 116
23 39 31
23 40 43
24 25 75
24 26 78
24 27 26
24 28 81
24 29 113
24 30 9
24 31 107
24 32 44
24 33 79
24 34 119
24 35 94
24 36 109
24 37 65
24 38 89
24 39 83
24 40 45
25 26 81
25 27 33
25 28 72
25 29 59
25 30 90
25 31 67
25 32 42
25 33 62
25 34 50
25 35 66
25 36 3
25 37 53
25 38 113
25 39 4
25 40 88
26 27 112
26 28 42
26 29 118
26 30 34
26 31 50
26 32 92
26 33 114
26 34 81
26 35 26
26 36 17
26 37 11
26 38 1
26 39 25
26 40 22
27 28 13
27 29 37
27 30 105
27 31 78
27 32 40
27 33 50
27 34 81
27 35 25
27 36 62
27 37 90
27 38 107
27 39 6
27 40 65
28 29 40
28 30 36
28 31 59
28 32 36
28 33 29
28 34 42
28 35 27
28 36 55
28 37 117
28 38 106
28 39 114
28 40 17
29 30 44
29 31 40
29 32 116
29 33 56
29 34 3
29 35 44
29 36 46
29 37 50
29 38 26
29 39 8
29 40 35
30 31 5
30 32 57
30 33 28
30 34 72
30 35 93
30 36 35
30 37 71
30 38 97
30 39 76
30 40 56
31 32 74
31 33 111
31 34 86
31 35 110
31 36 77
31 37 5
31 38 28
31 39 52
31 40 66
32 33 104
32 34 77
32 35 49
32 36 1
32 37 118
32 38 0
32 39 9
32 40 12
33 34 64
33 35 89
33 36 3
33 37 22
33 38 100
33 39 10
33 40 60
34 35 75
34 36 3
34 37 63
34 38 18
34 39 76
34 40 92
35 36 80
35 37 65
35 38 53
35 39 42
35 40 14
36 37 10
36 38 109
36 39 3
36 40 55
37 38 52
37 39 37
37 40 67
38 39 79
38 40 23
39 40 54
